50
100
99
98
95
95
93
93
90
88
87
87
85
83
82
80
79
79
79
77
74
74
73
73
72
71
70
66
63
61
61
61
60
60
59
57
55
54
51
48
45
43
42
39
39
37
37
36
36
35
32
32
